32 500
6 166
5 127
6 186
8 188
2 109
7 131
4 162
3 140
11 116
7 101
10 127
7 162
6 127
5 188
7 131
11 183
5 166
11 140
9 127
11 113
9 170
5 101
9 113
3 140
2 186
11 109
8 183
7 140
5 170
7 160
7 116
9 160
